&CONTROL
     calculation = 'scf',
     restart_mode='from_scratch',
     prefix='SiC512',
     nstep=100,
     pseudo_dir = '../../..',
     outdir = './tmp'
     verbosity = 'high'
     disk_io = 'none'
/
&SYSTEM
     ibrav=0
     celldm(1)=32.9538
     nat=512,
     ntyp=2,
     ecutwfc=35.0,
/
&ELECTRONS
      electron_maxstep = 9,
      conv_thr =  1.0d-8,
      diago_david_ndim = 2
/

ATOMIC_SPECIES
Si    1.0    C_ONCV_PBE-1.0.upf
C     1.0    Si_ONCV_PBE-1.0.upf

CELL_PARAMETERS alat
1.00  0.00  0.00
0.00  1.00  0.00
0.00  0.00  1.00

ATOMIC_POSITIONS {bohr}
Si   -16.478246   -16.478246   -16.478246
Si   -16.478246   -16.478246    -0.001346
Si   -16.478246    -0.001346   -16.478246
Si   -16.478246    -0.001346    -0.001346
Si    -0.001346   -16.478246   -16.478246
Si    -0.001346   -16.478246    -0.001346
Si    -0.001346    -0.001346   -16.478246
Si    -0.001346    -0.001346    -0.001346
C    -14.418297   -14.418297   -14.418297
C    -14.418297   -14.418297     2.058603
C    -14.418297     2.058603   -14.418297
C    -14.418297     2.058603     2.058603
C      2.058603   -14.418297   -14.418297
C      2.058603   -14.418297     2.058603
C      2.058603     2.058603   -14.418297
C      2.058603     2.058603     2.058603
Si   -12.358348   -12.358348   -16.478246
Si   -12.358348   -12.358348    -0.001346
Si   -12.358348     4.118552   -16.478246
Si   -12.358348     4.118552    -0.001346
Si     4.118552   -12.358348   -16.478246
Si     4.118552   -12.358348    -0.001346
Si     4.118552     4.118552   -16.478246
Si     4.118552     4.118552    -0.001346
C    -10.298399   -10.298399   -14.418297
C    -10.298399   -10.298399     2.058603
C    -10.298399     6.178501   -14.418297
C    -10.298399     6.178501     2.058603
C      6.178501   -10.298399   -14.418297
C      6.178501   -10.298399     2.058603
C      6.178501     6.178501   -14.418297
C      6.178501     6.178501     2.058603
Si   -16.478246   -12.358348   -12.358348
Si   -16.478246   -12.358348     4.118552
Si   -16.478246     4.118552   -12.358348
Si   -16.478246     4.118552     4.118552
Si    -0.001346   -12.358348   -12.358348
Si    -0.001346   -12.358348     4.118552
Si    -0.001346     4.118552   -12.358348
Si    -0.001346     4.118552     4.118552
C    -14.418297   -10.298399   -10.298399
C    -14.418297   -10.298399     6.178501
C    -14.418297     6.178501   -10.298399
C    -14.418297     6.178501     6.178501
C      2.058603   -10.298399   -10.298399
C      2.058603   -10.298399     6.178501
C      2.058603     6.178501   -10.298399
C      2.058603     6.178501     6.178501
Si   -12.358348   -16.478246   -12.358348
Si   -12.358348   -16.478246     4.118552
Si   -12.358348    -0.001346   -12.358348
Si   -12.358348    -0.001346     4.118552
Si     4.118552   -16.478246   -12.358348
Si     4.118552   -16.478246     4.118552
Si     4.118552    -0.001346   -12.358348
Si     4.118552    -0.001346     4.118552
C    -10.298399   -14.418297   -10.298399
C    -10.298399   -14.418297     6.178501
C    -10.298399     2.058603   -10.298399
C    -10.298399     2.058603     6.178501
C      6.178501   -14.418297   -10.298399
C      6.178501   -14.418297     6.178501
C      6.178501     2.058603   -10.298399
C      6.178501     2.058603     6.178501
Si   -16.478246   -16.478246    -8.238450
Si   -16.478246   -16.478246     8.238450
Si   -16.478246    -0.001346    -8.238450
Si   -16.478246    -0.001346     8.238450
Si    -0.001346   -16.478246    -8.238450
Si    -0.001346   -16.478246     8.238450
Si    -0.001346    -0.001346    -8.238450
Si    -0.001346    -0.001346     8.238450
C    -14.418297   -14.418297    -6.178501
C    -14.418297   -14.418297    10.298399
C    -14.418297     2.058603    -6.178501
C    -14.418297     2.058603    10.298399
C      2.058603   -14.418297    -6.178501
C      2.058603   -14.418297    10.298399
C      2.058603     2.058603    -6.178501
C      2.058603     2.058603    10.298399
Si   -12.358348   -12.358348    -8.238450
Si   -12.358348   -12.358348     8.238450
Si   -12.358348     4.118552    -8.238450
Si   -12.358348     4.118552     8.238450
Si     4.118552   -12.358348    -8.238450
Si     4.118552   -12.358348     8.238450
Si     4.118552     4.118552    -8.238450
Si     4.118552     4.118552     8.238450
C    -10.298399   -10.298399    -6.178501
C    -10.298399   -10.298399    10.298399
C    -10.298399     6.178501    -6.178501
C    -10.298399     6.178501    10.298399
C      6.178501   -10.298399    -6.178501
C      6.178501   -10.298399    10.298399
C      6.178501     6.178501    -6.178501
C      6.178501     6.178501    10.298399
Si   -16.478246   -12.358348    -4.118552
Si   -16.478246   -12.358348    12.358348
Si   -16.478246     4.118552    -4.118552
Si   -16.478246     4.118552    12.358348
Si    -0.001346   -12.358348    -4.118552
Si    -0.001346   -12.358348    12.358348
Si    -0.001346     4.118552    -4.118552
Si    -0.001346     4.118552    12.358348
C    -14.418297   -10.298399    -2.058603
C    -14.418297   -10.298399    14.418297
C    -14.418297     6.178501    -2.058603
C    -14.418297     6.178501    14.418297
C      2.058603   -10.298399    -2.058603
C      2.058603   -10.298399    14.418297
C      2.058603     6.178501    -2.058603
C      2.058603     6.178501    14.418297
Si   -12.358348   -16.478246    -4.118552
Si   -12.358348   -16.478246    12.358348
Si   -12.358348    -0.001346    -4.118552
Si   -12.358348    -0.001346    12.358348
Si     4.118552   -16.478246    -4.118552
Si     4.118552   -16.478246    12.358348
Si     4.118552    -0.001346    -4.118552
Si     4.118552    -0.001346    12.358348
C    -10.298399   -14.418297    -2.058603
C    -10.298399   -14.418297    14.418297
C    -10.298399     2.058603    -2.058603
C    -10.298399     2.058603    14.418297
C      6.178501   -14.418297    -2.058603
C      6.178501   -14.418297    14.418297
C      6.178501     2.058603    -2.058603
C      6.178501     2.058603    14.418297
Si   -16.478246    -8.238450   -16.478246
Si   -16.478246    -8.238450    -0.001346
Si   -16.478246     8.238450   -16.478246
Si   -16.478246     8.238450    -0.001346
Si    -0.001346    -8.238450   -16.478246
Si    -0.001346    -8.238450    -0.001346
Si    -0.001346     8.238450   -16.478246
Si    -0.001346     8.238450    -0.001346
C    -14.418297    -6.178501   -14.418297
C    -14.418297    -6.178501     2.058603
C    -14.418297    10.298399   -14.418297
C    -14.418297    10.298399     2.058603
C      2.058603    -6.178501   -14.418297
C      2.058603    -6.178501     2.058603
C      2.058603    10.298399   -14.418297
C      2.058603    10.298399     2.058603
Si   -12.358348    -4.118552   -16.478246
Si   -12.358348    -4.118552    -0.001346
Si   -12.358348    12.358348   -16.478246
Si   -12.358348    12.358348    -0.001346
Si     4.118552    -4.118552   -16.478246
Si     4.118552    -4.118552    -0.001346
Si     4.118552    12.358348   -16.478246
Si     4.118552    12.358348    -0.001346
C    -10.298399    -2.058603   -14.418297
C    -10.298399    -2.058603     2.058603
C    -10.298399    14.418297   -14.418297
C    -10.298399    14.418297     2.058603
C      6.178501    -2.058603   -14.418297
C      6.178501    -2.058603     2.058603
C      6.178501    14.418297   -14.418297
C      6.178501    14.418297     2.058603
Si   -16.478246    -4.118552   -12.358348
Si   -16.478246    -4.118552     4.118552
Si   -16.478246    12.358348   -12.358348
Si   -16.478246    12.358348     4.118552
Si    -0.001346    -4.118552   -12.358348
Si    -0.001346    -4.118552     4.118552
Si    -0.001346    12.358348   -12.358348
Si    -0.001346    12.358348     4.118552
C    -14.418297    -2.058603   -10.298399
C    -14.418297    -2.058603     6.178501
C    -14.418297    14.418297   -10.298399
C    -14.418297    14.418297     6.178501
C      2.058603    -2.058603   -10.298399
C      2.058603    -2.058603     6.178501
C      2.058603    14.418297   -10.298399
C      2.058603    14.418297     6.178501
Si   -12.358348    -8.238450   -12.358348
Si   -12.358348    -8.238450     4.118552
Si   -12.358348     8.238450   -12.358348
Si   -12.358348     8.238450     4.118552
Si     4.118552    -8.238450   -12.358348
Si     4.118552    -8.238450     4.118552
Si     4.118552     8.238450   -12.358348
Si     4.118552     8.238450     4.118552
C    -10.298399    -6.178501   -10.298399
C    -10.298399    -6.178501     6.178501
C    -10.298399    10.298399   -10.298399
C    -10.298399    10.298399     6.178501
C      6.178501    -6.178501   -10.298399
C      6.178501    -6.178501     6.178501
C      6.178501    10.298399   -10.298399
C      6.178501    10.298399     6.178501
Si   -16.478246    -8.238450    -8.238450
Si   -16.478246    -8.238450     8.238450
Si   -16.478246     8.238450    -8.238450
Si   -16.478246     8.238450     8.238450
Si    -0.001346    -8.238450    -8.238450
Si    -0.001346    -8.238450     8.238450
Si    -0.001346     8.238450    -8.238450
Si    -0.001346     8.238450     8.238450
C    -14.418297    -6.178501    -6.178501
C    -14.418297    -6.178501    10.298399
C    -14.418297    10.298399    -6.178501
C    -14.418297    10.298399    10.298399
C      2.058603    -6.178501    -6.178501
C      2.058603    -6.178501    10.298399
C      2.058603    10.298399    -6.178501
C      2.058603    10.298399    10.298399
Si   -12.358348    -4.118552    -8.238450
Si   -12.358348    -4.118552     8.238450
Si   -12.358348    12.358348    -8.238450
Si   -12.358348    12.358348     8.238450
Si     4.118552    -4.118552    -8.238450
Si     4.118552    -4.118552     8.238450
Si     4.118552    12.358348    -8.238450
Si     4.118552    12.358348     8.238450
C    -10.298399    -2.058603    -6.178501
C    -10.298399    -2.058603    10.298399
C    -10.298399    14.418297    -6.178501
C    -10.298399    14.418297    10.298399
C      6.178501    -2.058603    -6.178501
C      6.178501    -2.058603    10.298399
C      6.178501    14.418297    -6.178501
C      6.178501    14.418297    10.298399
Si   -16.478246    -4.118552    -4.118552
Si   -16.478246    -4.118552    12.358348
Si   -16.478246    12.358348    -4.118552
Si   -16.478246    12.358348    12.358348
Si    -0.001346    -4.118552    -4.118552
Si    -0.001346    -4.118552    12.358348
Si    -0.001346    12.358348    -4.118552
Si    -0.001346    12.358348    12.358348
C    -14.418297    -2.058603    -2.058603
C    -14.418297    -2.058603    14.418297
C    -14.418297    14.418297    -2.058603
C    -14.418297    14.418297    14.418297
C      2.058603    -2.058603    -2.058603
C      2.058603    -2.058603    14.418297
C      2.058603    14.418297    -2.058603
C      2.058603    14.418297    14.418297
Si   -12.358348    -8.238450    -4.118552
Si   -12.358348    -8.238450    12.358348
Si   -12.358348     8.238450    -4.118552
Si   -12.358348     8.238450    12.358348
Si     4.118552    -8.238450    -4.118552
Si     4.118552    -8.238450    12.358348
Si     4.118552     8.238450    -4.118552
Si     4.118552     8.238450    12.358348
C    -10.298399    -6.178501    -2.058603
C    -10.298399    -6.178501    14.418297
C    -10.298399    10.298399    -2.058603
C    -10.298399    10.298399    14.418297
C      6.178501    -6.178501    -2.058603
C      6.178501    -6.178501    14.418297
C      6.178501    10.298399    -2.058603
C      6.178501    10.298399    14.418297
Si    -8.238450   -16.478246   -16.478246
Si    -8.238450   -16.478246    -0.001346
Si    -8.238450    -0.001346   -16.478246
Si    -8.238450    -0.001346    -0.001346
Si     8.238450   -16.478246   -16.478246
Si     8.238450   -16.478246    -0.001346
Si     8.238450    -0.001346   -16.478246
Si     8.238450    -0.001346    -0.001346
C     -6.178501   -14.418297   -14.418297
C     -6.178501   -14.418297     2.058603
C     -6.178501     2.058603   -14.418297
C     -6.178501     2.058603     2.058603
C     10.298399   -14.418297   -14.418297
C     10.298399   -14.418297     2.058603
C     10.298399     2.058603   -14.418297
C     10.298399     2.058603     2.058603
Si    -4.118552   -12.358348   -16.478246
Si    -4.118552   -12.358348    -0.001346
Si    -4.118552     4.118552   -16.478246
Si    -4.118552     4.118552    -0.001346
Si    12.358348   -12.358348   -16.478246
Si    12.358348   -12.358348    -0.001346
Si    12.358348     4.118552   -16.478246
Si    12.358348     4.118552    -0.001346
C     -2.058603   -10.298399   -14.418297
C     -2.058603   -10.298399     2.058603
C     -2.058603     6.178501   -14.418297
C     -2.058603     6.178501     2.058603
C     14.418297   -10.298399   -14.418297
C     14.418297   -10.298399     2.058603
C     14.418297     6.178501   -14.418297
C     14.418297     6.178501     2.058603
Si    -8.238450   -12.358348   -12.358348
Si    -8.238450   -12.358348     4.118552
Si    -8.238450     4.118552   -12.358348
Si    -8.238450     4.118552     4.118552
Si     8.238450   -12.358348   -12.358348
Si     8.238450   -12.358348     4.118552
Si     8.238450     4.118552   -12.358348
Si     8.238450     4.118552     4.118552
C     -6.178501   -10.298399   -10.298399
C     -6.178501   -10.298399     6.178501
C     -6.178501     6.178501   -10.298399
C     -6.178501     6.178501     6.178501
C     10.298399   -10.298399   -10.298399
C     10.298399   -10.298399     6.178501
C     10.298399     6.178501   -10.298399
C     10.298399     6.178501     6.178501
Si    -4.118552   -16.478246   -12.358348
Si    -4.118552   -16.478246     4.118552
Si    -4.118552    -0.001346   -12.358348
Si    -4.118552    -0.001346     4.118552
Si    12.358348   -16.478246   -12.358348
Si    12.358348   -16.478246     4.118552
Si    12.358348    -0.001346   -12.358348
Si    12.358348    -0.001346     4.118552
C     -2.058603   -14.418297   -10.298399
C     -2.058603   -14.418297     6.178501
C     -2.058603     2.058603   -10.298399
C     -2.058603     2.058603     6.178501
C     14.418297   -14.418297   -10.298399
C     14.418297   -14.418297     6.178501
C     14.418297     2.058603   -10.298399
C     14.418297     2.058603     6.178501
Si    -8.238450   -16.478246    -8.238450
Si    -8.238450   -16.478246     8.238450
Si    -8.238450    -0.001346    -8.238450
Si    -8.238450    -0.001346     8.238450
Si     8.238450   -16.478246    -8.238450
Si     8.238450   -16.478246     8.238450
Si     8.238450    -0.001346    -8.238450
Si     8.238450    -0.001346     8.238450
C     -6.178501   -14.418297    -6.178501
C     -6.178501   -14.418297    10.298399
C     -6.178501     2.058603    -6.178501
C     -6.178501     2.058603    10.298399
C     10.298399   -14.418297    -6.178501
C     10.298399   -14.418297    10.298399
C     10.298399     2.058603    -6.178501
C     10.298399     2.058603    10.298399
Si    -4.118552   -12.358348    -8.238450
Si    -4.118552   -12.358348     8.238450
Si    -4.118552     4.118552    -8.238450
Si    -4.118552     4.118552     8.238450
Si    12.358348   -12.358348    -8.238450
Si    12.358348   -12.358348     8.238450
Si    12.358348     4.118552    -8.238450
Si    12.358348     4.118552     8.238450
C     -2.058603   -10.298399    -6.178501
C     -2.058603   -10.298399    10.298399
C     -2.058603     6.178501    -6.178501
C     -2.058603     6.178501    10.298399
C     14.418297   -10.298399    -6.178501
C     14.418297   -10.298399    10.298399
C     14.418297     6.178501    -6.178501
C     14.418297     6.178501    10.298399
Si    -8.238450   -12.358348    -4.118552
Si    -8.238450   -12.358348    12.358348
Si    -8.238450     4.118552    -4.118552
Si    -8.238450     4.118552    12.358348
Si     8.238450   -12.358348    -4.118552
Si     8.238450   -12.358348    12.358348
Si     8.238450     4.118552    -4.118552
Si     8.238450     4.118552    12.358348
C     -6.178501   -10.298399    -2.058603
C     -6.178501   -10.298399    14.418297
C     -6.178501     6.178501    -2.058603
C     -6.178501     6.178501    14.418297
C     10.298399   -10.298399    -2.058603
C     10.298399   -10.298399    14.418297
C     10.298399     6.178501    -2.058603
C     10.298399     6.178501    14.418297
Si    -4.118552   -16.478246    -4.118552
Si    -4.118552   -16.478246    12.358348
Si    -4.118552    -0.001346    -4.118552
Si    -4.118552    -0.001346    12.358348
Si    12.358348   -16.478246    -4.118552
Si    12.358348   -16.478246    12.358348
Si    12.358348    -0.001346    -4.118552
Si    12.358348    -0.001346    12.358348
C     -2.058603   -14.418297    -2.058603
C     -2.058603   -14.418297    14.418297
C     -2.058603     2.058603    -2.058603
C     -2.058603     2.058603    14.418297
C     14.418297   -14.418297    -2.058603
C     14.418297   -14.418297    14.418297
C     14.418297     2.058603    -2.058603
C     14.418297     2.058603    14.418297
Si    -8.238450    -8.238450   -16.478246
Si    -8.238450    -8.238450    -0.001346
Si    -8.238450     8.238450   -16.478246
Si    -8.238450     8.238450    -0.001346
Si     8.238450    -8.238450   -16.478246
Si     8.238450    -8.238450    -0.001346
Si     8.238450     8.238450   -16.478246
Si     8.238450     8.238450    -0.001346
C     -6.178501    -6.178501   -14.418297
C     -6.178501    -6.178501     2.058603
C     -6.178501    10.298399   -14.418297
C     -6.178501    10.298399     2.058603
C     10.298399    -6.178501   -14.418297
C     10.298399    -6.178501     2.058603
C     10.298399    10.298399   -14.418297
C     10.298399    10.298399     2.058603
Si    -4.118552    -4.118552   -16.478246
Si    -4.118552    -4.118552    -0.001346
Si    -4.118552    12.358348   -16.478246
Si    -4.118552    12.358348    -0.001346
Si    12.358348    -4.118552   -16.478246
Si    12.358348    -4.118552    -0.001346
Si    12.358348    12.358348   -16.478246
Si    12.358348    12.358348    -0.001346
C     -2.058603    -2.058603   -14.418297
C     -2.058603    -2.058603     2.058603
C     -2.058603    14.418297   -14.418297
C     -2.058603    14.418297     2.058603
C     14.418297    -2.058603   -14.418297
C     14.418297    -2.058603     2.058603
C     14.418297    14.418297   -14.418297
C     14.418297    14.418297     2.058603
Si    -8.238450    -4.118552   -12.358348
Si    -8.238450    -4.118552     4.118552
Si    -8.238450    12.358348   -12.358348
Si    -8.238450    12.358348     4.118552
Si     8.238450    -4.118552   -12.358348
Si     8.238450    -4.118552     4.118552
Si     8.238450    12.358348   -12.358348
Si     8.238450    12.358348     4.118552
C     -6.178501    -2.058603   -10.298399
C     -6.178501    -2.058603     6.178501
C     -6.178501    14.418297   -10.298399
C     -6.178501    14.418297     6.178501
C     10.298399    -2.058603   -10.298399
C     10.298399    -2.058603     6.178501
C     10.298399    14.418297   -10.298399
C     10.298399    14.418297     6.178501
Si    -4.118552    -8.238450   -12.358348
Si    -4.118552    -8.238450     4.118552
Si    -4.118552     8.238450   -12.358348
Si    -4.118552     8.238450     4.118552
Si    12.358348    -8.238450   -12.358348
Si    12.358348    -8.238450     4.118552
Si    12.358348     8.238450   -12.358348
Si    12.358348     8.238450     4.118552
C     -2.058603    -6.178501   -10.298399
C     -2.058603    -6.178501     6.178501
C     -2.058603    10.298399   -10.298399
C     -2.058603    10.298399     6.178501
C     14.418297    -6.178501   -10.298399
C     14.418297    -6.178501     6.178501
C     14.418297    10.298399   -10.298399
C     14.418297    10.298399     6.178501
Si    -8.238450    -8.238450    -8.238450
Si    -8.238450    -8.238450     8.238450
Si    -8.238450     8.238450    -8.238450
Si    -8.238450     8.238450     8.238450
Si     8.238450    -8.238450    -8.238450
Si     8.238450    -8.238450     8.238450
Si     8.238450     8.238450    -8.238450
Si     8.238450     8.238450     8.238450
C     -6.178501    -6.178501    -6.178501
C     -6.178501    -6.178501    10.298399
C     -6.178501    10.298399    -6.178501
C     -6.178501    10.298399    10.298399
C     10.298399    -6.178501    -6.178501
C     10.298399    -6.178501    10.298399
C     10.298399    10.298399    -6.178501
C     10.298399    10.298399    10.298399
Si    -4.118552    -4.118552    -8.238450
Si    -4.118552    -4.118552     8.238450
Si    -4.118552    12.358348    -8.238450
Si    -4.118552    12.358348     8.238450
Si    12.358348    -4.118552    -8.238450
Si    12.358348    -4.118552     8.238450
Si    12.358348    12.358348    -8.238450
Si    12.358348    12.358348     8.238450
C     -2.058603    -2.058603    -6.178501
C     -2.058603    -2.058603    10.298399
C     -2.058603    14.418297    -6.178501
C     -2.058603    14.418297    10.298399
C     14.418297    -2.058603    -6.178501
C     14.418297    -2.058603    10.298399
C     14.418297    14.418297    -6.178501
C     14.418297    14.418297    10.298399
Si    -8.238450    -4.118552    -4.118552
Si    -8.238450    -4.118552    12.358348
Si    -8.238450    12.358348    -4.118552
Si    -8.238450    12.358348    12.358348
Si     8.238450    -4.118552    -4.118552
Si     8.238450    -4.118552    12.358348
Si     8.238450    12.358348    -4.118552
Si     8.238450    12.358348    12.358348
C     -6.178501    -2.058603    -2.058603
C     -6.178501    -2.058603    14.418297
C     -6.178501    14.418297    -2.058603
C     -6.178501    14.418297    14.418297
C     10.298399    -2.058603    -2.058603
C     10.298399    -2.058603    14.418297
C     10.298399    14.418297    -2.058603
C     10.298399    14.418297    14.418297
Si    -4.118552    -8.238450    -4.118552
Si    -4.118552    -8.238450    12.358348
Si    -4.118552     8.238450    -4.118552
Si    -4.118552     8.238450    12.358348
Si    12.358348    -8.238450    -4.118552
Si    12.358348    -8.238450    12.358348
Si    12.358348     8.238450    -4.118552
Si    12.358348     8.238450    12.358348
C     -2.058603    -6.178501    -2.058603
C     -2.058603    -6.178501    14.418297
C     -2.058603    10.298399    -2.058603
C     -2.058603    10.298399    14.418297
C     14.418297    -6.178501    -2.058603
C     14.418297    -6.178501    14.418297
C     14.418297    10.298399    -2.058603
C     14.418297    10.298399    14.418297

K_POINTS (automatic)
1 1 1  0 0 0
